1218589
56,103,30,6,95,32,61,85,43,44,20,63,3,83,25,16,107,94,81,2,51,84,59,46,29,52,34,101,98,35,5,1,82,45,90,109,24,23,64,10,66,77,9,37,26,41,38,72,57,75,86,27,69,70,14,39,31,49,11,91,89,104,97,47,71,99,105,87,62,19,73,76,50,18,7,88,65,60,12,36,28,8,40,68,55,106,78,33,108,42,96,93,13,21,48,80,17,53,100,102,54,58,22,15,79,67,4,92,74
